\ENCODING=ISO-8859-1
\Problem name: IloCplex

Maximize
 obj: 16.5 x1 + 15.8 x2 + 15.6 x3 + 765.32 x4 + 1.0037 x5 + x6
Subject To
 c1:  5.88 x1 + 3.19 x2 + 1.69 x3 + 760.48 x4 + x5 + 28.52 x7 + 21.5 x8 + 15 x9
      + 10 x10 <= 100
 c2:  1.0037 x5 + 25.3200000000001 x7 + 15.3200000000001 x8
      + 5.32000000000005 x9 + 765.32 x11 + 765.32 x12 + 765.32 x13
      + 4.67999999999995 x14 >= 90
 c3:  740 x4 >= 0
 c4:  750 x4 >= 0
 c5:  - 750 x4 >= 0
 c6:  760 x4 >= 0
 c7:  - 760 x4 >= 0
 c8:  770 x4 >= 0
 c9:  x4 + x7 + x8 + x9 + x10 + x11 + x12 + x13 >= 0
 c10: x5 <= 100
Bounds
      x6 = 0
End
